
******************************************************************************
This program contains Ipopt, a library for large-scale nonlinear optimization.
 Ipopt is released as open source code under the Eclipse Public License (EPL).
         For more information visit http://projects.coin-or.org/Ipopt
******************************************************************************

This is Ipopt version 3.12.6, running with linear solver ma57.

Number of nonzeros in equality constraint Jacobian...:     7122
Number of nonzeros in inequality constraint Jacobian.:        0
Number of nonzeros in Lagrangian Hessian.............:     2727

Reallocating memory for MA57: lfact (74621)
Total number of variables............................:     2734
                     variables with only lower bounds:     1297
                variables with lower and upper bounds:       14
                     variables with only upper bounds:        0
Total number of equality constraints.................:     2727
Total number of inequality constraints...............:        0
        inequality constraints with only lower bounds:        0
   inequality constraints with lower and upper bounds:        0
        inequality constraints with only upper bounds:        0

iter    objective    inf_pr   inf_du lg(mu)  ||d||  lg(rg) alpha_du alpha_pr  ls
   0  4.0967376e+01 1.58e-01 9.93e-01  -1.0 0.00e+00    -  0.00e+00 0.00e+00   0
   1  4.0989001e+01 1.52e-01 2.55e+00  -1.0 1.81e+03    -  1.33e-02 3.47e-02h  1
   2  4.0999179e+01 1.52e-01 1.95e+01  -1.0 2.61e+03    -  3.61e-02 2.56e-03h  1
   3  4.1023255e+01 1.51e-01 1.36e+02  -1.0 4.08e+03    -  2.16e-02 3.73e-03f  1
   4  4.1118443e+01 1.49e-01 2.22e+02  -1.0 3.41e+03    -  3.76e-02 1.28e-02f  1
   5  4.1486832e+01 1.43e-01 2.13e+02  -1.0 2.63e+03    -  5.18e-02 4.29e-02f  1
   6  4.2328518e+01 1.29e-01 1.91e+02  -1.0 2.59e+03    -  9.57e-02 9.85e-02f  1
   7  4.2786551e+01 1.22e-01 2.27e+02  -1.0 2.65e+03    -  1.69e-01 5.63e-02f  1
   8  4.8455615e+01 5.44e-02 3.50e+02  -1.0 2.59e+03    -  2.09e-03 7.11e-01f  1
   9  4.8603960e+01 5.26e-02 3.41e+02  -1.0 6.53e+02  -4.0 7.93e-03 3.29e-02f  1
iter    objective    inf_pr   inf_du lg(mu)  ||d||  lg(rg) alpha_du alpha_pr  ls
  10  4.9620974e+01 4.23e-02 2.91e+02  -1.0 6.30e+02  -4.5 7.47e-03 2.11e-01f  1
  11  4.9631630e+01 4.22e-02 2.83e+02  -1.0 5.48e+02  -4.1 1.34e-01 2.36e-03h  1
  12  4.9612691e+01 4.21e-02 2.05e+02  -1.0 1.47e+04  -4.5 3.39e-03 1.02e-03h  1
  13  5.1630365e+01 2.17e-02 4.54e+02  -1.0 4.92e+02  -4.1 1.76e-03 5.86e-01f  1
  14  5.2219009e+01 1.72e-02 3.54e+02  -1.0 2.84e+02    -  2.12e-01 2.20e-01f  1
  15  5.4227417e+01 6.84e-03 2.45e+02  -1.0 2.13e+02    -  2.31e-01 8.08e-01f  1
  16  5.4808670e+01 3.81e-03 1.14e+02  -1.0 1.04e+02    -  5.43e-01 7.95e-01f  1
  17  5.4918703e+01 7.85e-04 5.14e+01  -1.0 2.85e+01    -  4.86e-01 8.56e-01f  1
  18  5.5150774e+01 3.13e-05 3.75e+01  -1.0 2.84e+01    -  3.41e-01 1.00e+00f  1
  19  5.6067901e+01 1.25e-04 3.20e+01  -1.0 1.66e+02    -  1.96e-01 1.00e+00f  1
iter    objective    inf_pr   inf_du lg(mu)  ||d||  lg(rg) alpha_du alpha_pr  ls
  20  5.7306031e+01 2.76e-04 2.09e+01  -1.0 1.93e+02    -  2.48e-01 1.00e+00f  1
  21  5.9257845e+01 4.23e-04 8.12e+00  -1.0 5.30e+02    -  4.39e-01 1.00e+00f  1
  22  6.2537166e+01 8.37e-04 3.93e+00  -1.0 6.50e+02    -  3.36e-01 1.00e+00f  1
  23  6.2897132e+01 6.92e-04 3.27e+00  -1.0 1.75e+01  -2.8 2.47e-01 1.73e-01f  1
  24  6.6021687e+01 4.62e-04 2.30e+00  -1.0 1.87e+02    -  1.18e-01 3.51e-01f  1
  25  7.0021602e+01 3.80e-04 1.34e+00  -1.0 4.15e+02    -  4.61e-01 4.19e-01f  1
  26  7.2072302e+01 3.61e-04 9.60e-01  -1.0 9.87e+02    -  7.20e-01 2.79e-01f  1
  27  7.2724705e+01 3.02e-04 9.24e-01  -1.0 5.19e+02    -  7.28e-01 1.63e-01f  1
  28  7.2682458e+01 4.99e-05 1.32e-01  -1.0 3.34e+01    -  9.90e-01 8.75e-01h  1
  29  7.2659644e+01 5.69e-06 1.62e-04  -1.0 1.97e+01    -  9.93e-01 1.00e+00f  1
iter    objective    inf_pr   inf_du lg(mu)  ||d||  lg(rg) alpha_du alpha_pr  ls
  30  7.2604451e+01 2.68e-07 1.91e-01  -1.7 3.44e+00    -  8.97e-01 1.00e+00f  1
  31  7.0050922e+01 9.71e-04 5.39e-01  -2.5 1.46e+02    -  4.12e-02 1.00e+00f  1
  32  6.4674808e+01 3.20e-03 4.20e-01  -2.5 4.99e+02    -  1.55e-01 7.46e-01f  1
  33  6.4638569e+01 3.11e-03 3.26e-01  -2.5 7.14e+00  -3.3 5.79e-01 2.93e-02h  1
  34  6.3086863e+01 3.90e-04 1.35e-01  -2.5 2.09e+01  -3.7 6.42e-01 8.76e-01f  1
  35  5.8999840e+01 1.04e-04 1.05e-01  -2.5 3.34e+01  -4.2 4.03e-01 1.00e+00f  1
  36  5.8795999e+01 1.01e-04 1.55e-01  -2.5 4.96e+01  -4.7 8.23e-01 3.29e-02f  1
  37  5.8774041e+01 3.36e-06 3.81e-01  -2.5 2.50e+01  -5.2 6.14e-01 1.00e+00f  1
  38  5.8525151e+01 1.91e-05 8.43e-02  -2.5 7.54e+01  -5.6 7.81e-01 7.71e-01f  1
  39  5.7613659e+01 3.62e-04 1.65e-02  -2.5 2.46e+02  -6.1 8.57e-01 1.00e+00f  1
iter    objective    inf_pr   inf_du lg(mu)  ||d||  lg(rg) alpha_du alpha_pr  ls
  40  5.7250194e+01 1.80e-04 2.45e-01  -3.8 1.28e+02  -5.7 9.07e-01 4.40e-01f  1
  41  5.7164992e+01 7.86e-06 3.75e-01  -3.8 7.29e+00  -4.4 2.53e-01 1.00e+00f  1
  42  5.7136182e+01 5.62e-06 2.52e-01  -3.8 1.71e+01  -4.8 1.00e+00 2.85e-01f  1
  43  5.6934914e+01 1.09e-05 2.74e-02  -3.8 5.01e+01  -5.3 1.00e+00 8.81e-01f  1
  44  5.6288376e+01 1.11e-04 2.49e-04  -3.8 1.54e+02  -5.8 1.00e+00 1.00e+00f  1
  45  5.4756978e+01 3.76e-04 3.27e-03  -5.7 4.76e+02  -6.3 6.75e-01 7.56e-01f  1
  46  5.4638859e+01 3.19e-04 7.30e-03  -5.7 1.98e+02  -5.8 8.09e-01 1.54e-01f  1
  47  5.4306445e+01 2.64e-04 9.77e-02  -5.7 3.44e+02  -6.3 7.32e-01 2.17e-01f  1
  48  5.4127636e+01 2.47e-04 7.47e-02  -5.7 6.23e+02  -6.8 3.90e-01 3.48e-01f  1
  49  5.3953870e+01 2.21e-04 1.26e-01  -5.7 7.85e+02    -  8.83e-01 2.94e-01f  1
iter    objective    inf_pr   inf_du lg(mu)  ||d||  lg(rg) alpha_du alpha_pr  ls
  50  5.3656465e+01 1.54e-03 3.53e-02  -5.7 7.49e+02    -  7.61e-01 7.16e-01f  1
  51  5.3700210e+01 1.05e-03 2.86e-02  -5.7 3.57e+02    -  4.10e-01 3.13e-01h  1
  52  5.3733067e+01 7.25e-04 2.46e-01  -5.7 1.08e+02  -6.4 1.00e+00 2.86e-01h  1
  53  5.3817233e+01 2.43e-05 2.67e-05  -5.7 1.38e+01    -  1.00e+00 1.00e+00h  1
  54  5.3814279e+01 5.46e-07 2.79e-06  -5.7 2.26e+01    -  1.00e+00 1.00e+00h  1
  55  5.3814127e+01 8.84e-09 1.18e-07  -5.7 2.94e+00    -  1.00e+00 1.00e+00h  1
  56  5.3814112e+01 4.53e-11 1.86e-06  -8.6 6.29e-02    -  1.00e+00 9.95e-01h  1
  57  5.3814112e+01 4.55e-13 2.53e-14  -8.6 3.36e-05    -  1.00e+00 1.00e+00f  1

Number of Iterations....: 57

                                   (scaled)                 (unscaled)
Objective...............:   5.3814112407849116e+01    5.3814112407849116e+01
Dual infeasibility......:   2.5328522832472776e-14    2.5328522832472776e-14
Constraint violation....:   4.5474735088646412e-13    4.5474735088646412e-13
Complementarity.........:   2.5059089767214284e-09    2.5059089767214284e-09
Overall NLP error.......:   2.5059089767214284e-09    2.5059089767214284e-09


Number of objective function evaluations             = 58
Number of objective gradient evaluations             = 58
Number of equality constraint evaluations            = 58
Number of inequality constraint evaluations          = 0
Number of equality constraint Jacobian evaluations   = 58
Number of inequality constraint Jacobian evaluations = 0
Number of Lagrangian Hessian evaluations             = 57
Total CPU secs in IPOPT (w/o function evaluations)   =      0.283
Total CPU secs in NLP function evaluations           =      0.077

EXIT: Optimal Solution Found.

************************ CUTEst statistics ************************


 Package used            :  IPOPT
 Problem                 :  BRIDGEND  
 # variables             =            2734
 # constraints           =            2727
 # objective functions   =        0.1170000E+03
 # objective gradients   =        0.5900000E+02
 # objective Hessians    =        0.5800000E+02
 # Hessian-vector prdct  =        0.0000000E+00
 # constraints functions =        0.1180000E+03
 # constraints gradients =        0.6000000E+02
 # constraints Hessians  =        0.5800000E+02
 Exit code               =               0
 Final f                 =   0.5381411E+02
 Set up time             =            0.06 seconds
 Solve time              =            0.57 seconds


******************************************************************

System Time =       0.3589999974 s.
